
Gurobi 9.5.0 (linux64) logging started Sat Nov  4 11:41:21 2023

Set parameter LogFile to value "/lustre1/scratch/348/vsc34888/JointResearch/05.Models/06.Benchmarking/E.Representative_days_based_on_Line_Benefits_OptModel/RTS24_ByStages_nc70/openStarNet_RTS24_ByStages_nc70.log"
Set parameter Method to value 2
Set parameter MIPFocus to value 1
Set parameter Presolve to value 2
Set parameter RINS to value 100
Set parameter MIPGap to value 0.01
Set parameter Threads to value 36
Set parameter TimeLimit to value 604800
Set parameter IterationLimit to value 760000000
Gurobi Optimizer version 9.5.0 build v9.5.0rc5 (linux64)
Thread count: 36 physical cores, 36 logical processors, using up to 36 threads
Optimize a model with 31153 rows, 17654 columns and 84843 nonzeros
Model fingerprint: 0xd44b95d0
Variable types: 17615 continuous, 39 integer (39 binary)
Coefficient statistics:
  Matrix range     [1e-03, 2e+03]
  Objective range  [1e+00, 1e+00]
  Bounds range     [4e-04, 3e+00]
  RHS range        [4e-04, 3e+00]
Presolve removed 15193 rows and 7470 columns
Presolve time: 0.15s
Presolved: 15960 rows, 10184 columns, 55435 nonzeros
Variable types: 10145 continuous, 39 integer (39 binary)
Found heuristic solution: objective 142.1388490
Root relaxation presolved: 15960 rows, 10184 columns, 55435 nonzeros

Root barrier log...

Ordering time: 0.01s

Barrier statistics:
 Dense cols : 39
 AA' NZ     : 1.181e+05
 Factor NZ  : 3.959e+05 (roughly 14 MB of memory)
 Factor Ops : 1.247e+07 (less than 1 second per iteration)
 Threads    : 36

                  Objective                Residual
Iter       Primal          Dual         Primal    Dual     Compl     Time
   0   6.00199475e+05 -1.69678738e+08  4.41e+00 5.53e+02  1.50e+04     0s
   1   5.92045281e+04 -4.51578561e+07  3.91e-01 7.32e-09  1.89e+03     0s
   2   1.50913466e+04 -6.24716034e+06  1.13e-02 3.00e-09  1.98e+02     0s
   3   9.96216683e+03 -2.72146255e+05  1.09e-12 1.47e-10  8.74e+00     0s
   4   2.05260576e+03 -2.94914854e+04  1.79e-12 1.12e-11  9.78e-01     0s
   5   8.49696392e+02 -9.47491023e+03  5.28e-13 3.23e-12  3.20e-01     0s
   6   3.94280537e+02 -2.64624950e+03  2.95e-13 1.82e-12  9.42e-02     0s
   7   2.38929115e+02 -9.10881625e+02  3.11e-13 1.82e-12  3.56e-02     0s
   8   1.62983586e+02 -4.18044213e+02  3.22e-13 3.64e-12  1.80e-02     0s
   9   1.35422534e+02 -1.02527628e+02  2.90e-13 3.64e-12  7.37e-03     0s
  10   1.11000421e+02  5.46527760e+00  5.83e-13 1.82e-12  3.27e-03     0s
  11   1.03572480e+02  5.98600707e+01  5.20e-13 1.82e-12  1.35e-03     1s
  12   9.52718627e+01  7.78801092e+01  2.62e-12 1.82e-12  5.39e-04     1s
  13   9.35943514e+01  8.29399182e+01  2.40e-12 3.64e-12  3.30e-04     1s
  14   9.14329212e+01  8.48043315e+01  2.06e-12 3.64e-12  2.05e-04     1s
  15   9.04276109e+01  8.54076350e+01  2.24e-12 1.82e-12  1.56e-04     1s
  16   8.87787369e+01  8.65372611e+01  3.45e-12 3.64e-12  6.95e-05     1s
  17   8.80024316e+01  8.69189272e+01  1.12e-11 1.82e-12  3.36e-05     1s
  18   8.76318933e+01  8.71707529e+01  1.87e-11 1.82e-12  1.43e-05     1s
  19   8.74130510e+01  8.71972234e+01  9.27e-11 1.82e-12  6.69e-06     1s
  20   8.73278649e+01  8.72603764e+01  3.69e-09 3.64e-12  2.09e-06     1s
  21   8.72813013e+01  8.72697835e+01  4.07e-10 3.64e-12  3.57e-07     1s
  22   8.72749963e+01  8.72741040e+01  4.10e-11 1.82e-12  2.77e-08     1s
  23   8.72744093e+01  8.72744084e+01  6.76e-11 1.82e-12  2.61e-11     1s

Barrier solved model in 23 iterations and 0.64 seconds (0.52 work units)
Optimal objective 8.72744093e+01


Root relaxation: objective 8.727441e+01, 1231 iterations, 0.43 seconds (0.24 work units)

    Nodes    |    Current Node    |     Objective Bounds      |     Work
 Expl Unexpl |  Obj  Depth IntInf | Incumbent    BestBd   Gap | It/Node Time

     0     0   87.27441    0   11  142.13885   87.27441  38.6%     -    0s
H    0     0                     116.0279174   87.27441  24.8%     -    0s
H    0     0                     100.9988302   91.61409  9.29%     -    1s
     0     0   91.61409    0   11  100.99883   91.61409  9.29%     -    1s
     0     0   91.98946    0   10  100.99883   91.98946  8.92%     -    1s
     0     0   92.18348    0    9  100.99883   92.18348  8.73%     -    1s
     0     0   92.18348    0    9  100.99883   92.18348  8.73%     -    1s
     0     0   92.18348    0    9  100.99883   92.18348  8.73%     -    2s
     0     0   92.27443    0   11  100.99883   92.27443  8.64%     -    2s
     0     0   92.32193    0    9  100.99883   92.32193  8.59%     -    2s
     0     0   92.34385    0   10  100.99883   92.34385  8.57%     -    2s
     0     0   92.34871    0   11  100.99883   92.34871  8.56%     -    2s
     0     0   92.35051    0   11  100.99883   92.35051  8.56%     -    2s
     0     0   92.35051    0   11  100.99883   92.35051  8.56%     -    2s
     0     0   92.36857    0   11  100.99883   92.36857  8.54%     -    2s
     0     0   92.37820    0   11  100.99883   92.37820  8.54%     -    2s
     0     0   92.38219    0   11  100.99883   92.38219  8.53%     -    2s
     0     0   92.42286    0   11  100.99883   92.42286  8.49%     -    3s
H    0     0                      99.1257995   92.42286  6.76%     -    7s
     0     2   92.42286    0   11   99.12580   92.42286  6.76%     -    7s
   302    10   98.64076   14    3   99.12580   97.99981  1.14%   179   12s

Cutting planes:
  Gomory: 4
  Implied bound: 39
  MIR: 394
  Relax-and-lift: 1

Explored 334 nodes (60985 simplex iterations) in 12.27 seconds (12.40 work units)
Thread count was 36 (of 36 available processors)

Solution count 4: 99.1258 100.999 116.028 142.139 

Optimal solution found (tolerance 1.00e-02)
Best objective 9.912579945048e+01, best bound 9.848892932410e+01, gap 0.6425%

Gurobi 9.5.0 (linux64) logging started Sat Nov  4 11:41:37 2023

Set parameter LogFile to value "/lustre1/scratch/348/vsc34888/JointResearch/05.Models/06.Benchmarking/E.Representative_days_based_on_Line_Benefits_OptModel/RTS24_ByStages_nc70/openStarNet_RTS24_ByStages_nc70.log"
Set parameter Method to value 2
Set parameter MIPFocus to value 1
Set parameter Presolve to value 2
Set parameter RINS to value 100
Set parameter MIPGap to value 0.01
Set parameter Threads to value 36
Set parameter TimeLimit to value 604800
Set parameter IterationLimit to value 760000000
No parameters matching 'relax_integrality' found
Gurobi Optimizer version 9.5.0 build v9.5.0rc5 (linux64)
Thread count: 36 physical cores, 36 logical processors, using up to 36 threads
Optimize a model with 31153 rows, 17615 columns and 73884 nonzeros
Model fingerprint: 0xce9328bd
Coefficient statistics:
  Matrix range     [1e-03, 2e+03]
  Objective range  [1e+00, 1e+00]
  Bounds range     [4e-04, 3e+00]
  RHS range        [4e-04, 3e+01]
Presolve removed 24645 rows and 8174 columns
Presolve time: 0.03s
Presolved: 6508 rows, 9581 columns, 23857 nonzeros

Ordering time: 0.00s

Barrier statistics:
 AA' NZ     : 1.679e+04
 Factor NZ  : 7.132e+04 (roughly 6 MB of memory)
 Factor Ops : 1.084e+06 (less than 1 second per iteration)
 Threads    : 36

                  Objective                Residual
Iter       Primal          Dual         Primal    Dual     Compl     Time
   0   6.73531741e+05 -5.15957976e+08  5.74e+00 2.92e+03  6.18e+04     0s
   1   7.38514911e+04 -8.45583339e+07  4.80e-01 4.79e-11  6.65e+03     0s
   2   3.86356390e+04 -7.99924262e+06  1.33e-01 4.45e-11  5.98e+02     0s
   3   2.08808053e+04 -6.86090376e+05  5.25e-03 2.91e-11  4.36e+01     0s
   4   7.19476793e+03 -1.18429847e+05  6.78e-07 5.80e-10  7.65e+00     0s
   5   3.35194038e+03 -3.05211407e+04  1.46e-07 1.34e-10  2.06e+00     0s
   6   1.82268004e+03 -9.37115689e+03  5.46e-08 3.97e-11  6.82e-01     0s
   7   6.03377725e+02 -2.53806173e+03  8.13e-09 1.01e-11  1.91e-01     0s
   8   3.42731376e+02 -7.84535610e+02  3.02e-09 7.28e-12  6.87e-02     0s
   9   2.13983121e+02 -2.00152227e+02  1.23e-09 1.46e-11  2.52e-02     0s
  10   1.48845064e+02  3.34802951e+01  4.97e-10 7.28e-12  7.03e-03     0s
  11   1.15188941e+02  7.11913523e+01  1.44e-10 3.64e-12  2.68e-03     0s
  12   1.05956687e+02  8.82471020e+01  5.61e-11 7.28e-12  1.08e-03     0s
  13   1.01692276e+02  9.48538642e+01  1.93e-11 7.28e-12  4.17e-04     0s
  14   1.00168591e+02  9.76931073e+01  7.48e-12 7.28e-12  1.51e-04     0s
  15   9.95291064e+01  9.87445590e+01  2.84e-12 1.46e-11  4.78e-05     0s
  16   9.92019441e+01  9.90653693e+01  7.91e-13 1.46e-11  8.32e-06     0s
  17   9.91304134e+01  9.91250131e+01  3.38e-12 7.28e-12  3.29e-07     0s
  18   9.91258043e+01  9.91257975e+01  6.35e-12 3.64e-12  4.13e-10     0s
  19   9.91257995e+01  9.91257995e+01  6.59e-12 1.82e-12  4.67e-16     0s

Barrier solved model in 19 iterations and 0.16 seconds (0.09 work units)
Optimal objective 9.91257995e+01

Crossover log...

     733 DPushes remaining with DInf 0.0000000e+00                 0s
       0 DPushes remaining with DInf 0.0000000e+00                 0s

     524 PPushes remaining with PInf 0.0000000e+00                 0s
       0 PPushes remaining with PInf 0.0000000e+00                 0s

  Push phase complete: Pinf 0.0000000e+00, Dinf 1.4133156e-12      0s

Iteration    Objective       Primal Inf.    Dual Inf.      Time
     531    9.9125799e+01   0.000000e+00   0.000000e+00      0s

Use crossover to convert LP symmetric solution to basic solution...
Crossover log...

       0 DPushes remaining with DInf 0.0000000e+00                 0s

     252 PPushes remaining with PInf 0.0000000e+00                 0s
       0 PPushes remaining with PInf 0.0000000e+00                 0s

  Push phase complete: Pinf 0.0000000e+00, Dinf 2.1349226e-12      0s

Iteration    Objective       Primal Inf.    Dual Inf.      Time
     789    9.9125799e+01   0.000000e+00   0.000000e+00      0s

Solved in 789 iterations and 0.23 seconds (0.13 work units)
Optimal objective  9.912579945e+01

Gurobi 9.5.0 (linux64) logging started Sat Nov  4 12:10:15 2023

Set parameter LogFile to value "/lustre1/scratch/348/vsc34888/JointResearch/05.Models/06.Benchmarking/E.Representative_days_based_on_Line_Benefits_OptModel/RTS24_ByStages_nc70/openStarNet_RTS24_ByStages_nc70.log"
Set parameter Method to value 2
Set parameter MIPFocus to value 1
Set parameter Presolve to value 2
Set parameter RINS to value 100
Set parameter MIPGap to value 0.01
Set parameter Threads to value 36
Set parameter TimeLimit to value 604800
Set parameter IterationLimit to value 760000000
Gurobi Optimizer version 9.5.0 build v9.5.0rc5 (linux64)
Thread count: 36 physical cores, 36 logical processors, using up to 36 threads
Optimize a model with 31153 rows, 17654 columns and 84843 nonzeros
Model fingerprint: 0xfb4d337a
Variable types: 17615 continuous, 39 integer (39 binary)
Coefficient statistics:
  Matrix range     [1e-03, 2e+03]
  Objective range  [1e+00, 1e+00]
  Bounds range     [4e-04, 3e+00]
  RHS range        [4e-04, 3e+00]
Presolve removed 15193 rows and 7470 columns
Presolve time: 0.15s
Presolved: 15960 rows, 10184 columns, 55435 nonzeros
Variable types: 10145 continuous, 39 integer (39 binary)
Found heuristic solution: objective 142.1388490
Root relaxation presolved: 15960 rows, 10184 columns, 55435 nonzeros

Root barrier log...

Ordering time: 0.01s

Barrier statistics:
 Dense cols : 39
 AA' NZ     : 1.181e+05
 Factor NZ  : 3.959e+05 (roughly 14 MB of memory)
 Factor Ops : 1.247e+07 (less than 1 second per iteration)
 Threads    : 36

                  Objective                Residual
Iter       Primal          Dual         Primal    Dual     Compl     Time
   0   6.00199475e+05 -1.69678738e+08  4.41e+00 5.53e+02  1.50e+04     0s
   1   5.92045281e+04 -4.51578561e+07  3.91e-01 1.05e-08  1.89e+03     0s
   2   1.50913466e+04 -6.24716034e+06  1.13e-02 3.09e-09  1.98e+02     0s
   3   9.96216683e+03 -2.72146255e+05  9.46e-13 1.82e-10  8.74e+00     0s
   4   2.05260576e+03 -2.94914854e+04  1.29e-12 1.13e-11  9.78e-01     0s
   5   8.49696392e+02 -9.47491023e+03  5.76e-13 3.21e-12  3.20e-01     0s
   6   3.94280537e+02 -2.64624950e+03  3.61e-13 1.82e-12  9.42e-02     0s
   7   2.38929115e+02 -9.10881625e+02  4.51e-13 1.82e-12  3.56e-02     0s
   8   1.62983586e+02 -4.18044213e+02  2.69e-13 1.82e-12  1.80e-02     0s
   9   1.35422534e+02 -1.02527628e+02  2.33e-13 1.82e-12  7.37e-03     0s
  10   1.11000421e+02  5.46527760e+00  2.85e-13 1.82e-12  3.27e-03     0s
  11   1.03572480e+02  5.98600707e+01  5.20e-13 1.82e-12  1.35e-03     1s
  12   9.52718627e+01  7.78801092e+01  3.57e-12 3.64e-12  5.39e-04     1s
  13   9.35943514e+01  8.29399182e+01  2.59e-12 1.82e-12  3.30e-04     1s
  14   9.14329212e+01  8.48043315e+01  2.18e-12 3.64e-12  2.05e-04     1s
  15   9.04276109e+01  8.54076350e+01  1.91e-12 1.82e-12  1.56e-04     1s
  16   8.87787369e+01  8.65372611e+01  3.74e-12 1.82e-12  6.95e-05     1s
  17   8.80024316e+01  8.69189272e+01  2.68e-11 3.64e-12  3.36e-05     1s
  18   8.76318933e+01  8.71707529e+01  2.45e-11 3.64e-12  1.43e-05     1s
  19   8.74130510e+01  8.71972234e+01  9.42e-11 1.82e-12  6.69e-06     1s
  20   8.73278648e+01  8.72603764e+01  1.20e-09 3.64e-12  2.09e-06     1s
  21   8.72918619e+01  8.72682512e+01  3.77e-10 1.82e-12  7.32e-07     1s
  22   8.72772045e+01  8.72740595e+01  6.06e-11 3.64e-12  9.75e-08     1s
  23   8.72744117e+01  8.72744065e+01  4.77e-11 1.82e-12  1.62e-10     1s
  24   8.72744088e+01  8.72744088e+01  9.84e-11 3.64e-12  1.62e-13     1s

Barrier solved model in 24 iterations and 0.65 seconds (0.53 work units)
Optimal objective 8.72744088e+01


Root relaxation: objective 8.727441e+01, 1230 iterations, 0.44 seconds (0.25 work units)

    Nodes    |    Current Node    |     Objective Bounds      |     Work
 Expl Unexpl |  Obj  Depth IntInf | Incumbent    BestBd   Gap | It/Node Time

     0     0   87.27441    0   11  142.13885   87.27441  38.6%     -    0s
H    0     0                     116.0279174   87.27441  24.8%     -    1s
H    0     0                     100.9988302   91.67951  9.23%     -    1s
     0     0   91.67951    0   10  100.99883   91.67951  9.23%     -    1s
     0     0   91.97720    0   10  100.99883   91.97720  8.93%     -    1s
     0     0   91.97720    0   10  100.99883   91.97720  8.93%     -    1s
     0     0   92.30664    0    8  100.99883   92.30664  8.61%     -    2s
     0     0   92.39986    0   10  100.99883   92.39986  8.51%     -    2s
     0     0   92.41471    0    9  100.99883   92.41471  8.50%     -    2s
     0     0   92.42521    0   10  100.99883   92.42521  8.49%     -    2s
     0     0   92.42999    0   10  100.99883   92.42999  8.48%     -    2s
     0     0   92.43001    0   10  100.99883   92.43001  8.48%     -    2s
     0     0   92.43382    0   10  100.99883   92.43382  8.48%     -    2s
     0     0   92.44292    0    9  100.99883   92.44292  8.47%     -    2s
     0     0   92.44329    0    9  100.99883   92.44329  8.47%     -    2s
     0     0   92.45599    0    9  100.99883   92.45599  8.46%     -    3s
H    0     0                      99.1257995   92.45599  6.73%     -    4s
     0     2   92.45599    0    9   99.12580   92.45599  6.73%     -    5s
   110    43     cutoff    8        99.12580   94.91047  4.25%   278   10s
   209    45   97.38260   11    4   99.12580   96.59237  2.56%   226   15s

Cutting planes:
  Gomory: 4
  Implied bound: 20
  MIR: 630
  Relax-and-lift: 2

Explored 384 nodes (72155 simplex iterations) in 19.37 seconds (19.04 work units)
Thread count was 36 (of 36 available processors)

Solution count 4: 99.1258 100.999 116.028 142.139 

Optimal solution found (tolerance 1.00e-02)
Best objective 9.912579945048e+01, best bound 9.856179760532e+01, gap 0.5690%

Gurobi 9.5.0 (linux64) logging started Sat Nov  4 12:10:38 2023

Set parameter LogFile to value "/lustre1/scratch/348/vsc34888/JointResearch/05.Models/06.Benchmarking/E.Representative_days_based_on_Line_Benefits_OptModel/RTS24_ByStages_nc70/openStarNet_RTS24_ByStages_nc70.log"
Set parameter Method to value 2
Set parameter MIPFocus to value 1
Set parameter Presolve to value 2
Set parameter RINS to value 100
Set parameter MIPGap to value 0.01
Set parameter Threads to value 36
Set parameter TimeLimit to value 604800
Set parameter IterationLimit to value 760000000
No parameters matching 'relax_integrality' found
Gurobi Optimizer version 9.5.0 build v9.5.0rc5 (linux64)
Thread count: 36 physical cores, 36 logical processors, using up to 36 threads
Optimize a model with 31153 rows, 17615 columns and 73884 nonzeros
Model fingerprint: 0x137853ce
Coefficient statistics:
  Matrix range     [1e-03, 2e+03]
  Objective range  [1e+00, 1e+00]
  Bounds range     [4e-04, 3e+00]
  RHS range        [4e-04, 3e+01]
Presolve removed 24645 rows and 8174 columns
Presolve time: 0.03s
Presolved: 6508 rows, 9581 columns, 23857 nonzeros

Ordering time: 0.00s

Barrier statistics:
 AA' NZ     : 1.688e+04
 Factor NZ  : 7.165e+04 (roughly 6 MB of memory)
 Factor Ops : 1.092e+06 (less than 1 second per iteration)
 Threads    : 36

                  Objective                Residual
Iter       Primal          Dual         Primal    Dual     Compl     Time
   0   6.79799660e+05 -5.16032596e+08  5.82e+00 1.40e+03  6.22e+04     0s
   1   7.33888494e+04 -8.60331904e+07  4.83e-01 4.37e-11  6.75e+03     0s
   2   3.83220584e+04 -7.19464549e+06  1.33e-01 4.95e-11  5.39e+02     0s
   3   2.02850345e+04 -6.83810942e+05  4.99e-03 2.70e-11  4.34e+01     0s
   4   7.52468672e+03 -1.13909271e+05  5.32e-07 1.07e-10  7.39e+00     0s
   5   3.63937454e+03 -2.96369482e+04  1.32e-07 2.88e-11  2.02e+00     0s
   6   1.98625818e+03 -9.45242103e+03  5.14e-08 1.46e-11  6.96e-01     0s
   7   6.30426340e+02 -2.46321081e+03  7.53e-09 1.46e-11  1.88e-01     0s
   8   3.73282040e+02 -7.61730108e+02  3.12e-09 7.28e-12  6.91e-02     0s
   9   2.25835342e+02 -2.17505226e+02  1.25e-09 1.46e-11  2.70e-02     0s
  10   1.37032532e+02 -1.00489602e+01  2.92e-10 1.46e-11  8.95e-03     0s
  11   1.15460455e+02  5.10674393e+01  1.12e-10 7.28e-12  3.92e-03     0s
  12   1.07699182e+02  8.14148852e+01  5.35e-11 1.82e-12  1.60e-03     0s
  13   1.02946992e+02  9.18264111e+01  2.18e-11 7.28e-12  6.77e-04     0s
  14   1.01026068e+02  9.62491470e+01  1.01e-11 7.28e-12  2.91e-04     0s
  15   9.97842125e+01  9.82341823e+01  3.34e-12 1.46e-11  9.43e-05     0s
  16   9.93277822e+01  9.89001176e+01  9.66e-13 3.64e-12  2.60e-05     0s
  17   9.91595930e+01  9.91175474e+01  3.71e-13 1.46e-11  2.56e-06     0s
  18   9.91261998e+01  9.91254908e+01  4.20e-12 3.64e-12  4.31e-08     0s
  19   9.91257995e+01  9.91257994e+01  9.31e-13 1.82e-12  6.26e-12     0s
  20   9.91257995e+01  9.91257995e+01  4.83e-11 7.28e-12  6.41e-17     0s

Barrier solved model in 20 iterations and 0.14 seconds (0.10 work units)
Optimal objective 9.91257995e+01

Crossover log...

     739 DPushes remaining with DInf 0.0000000e+00                 0s
       0 DPushes remaining with DInf 0.0000000e+00                 0s

     531 PPushes remaining with PInf 0.0000000e+00                 0s
       0 PPushes remaining with PInf 0.0000000e+00                 0s

  Push phase complete: Pinf 0.0000000e+00, Dinf 1.7013231e-12      0s

Iteration    Objective       Primal Inf.    Dual Inf.      Time
     537    9.9125799e+01   0.000000e+00   0.000000e+00      0s

Use crossover to convert LP symmetric solution to basic solution...
Crossover log...

       0 DPushes remaining with DInf 0.0000000e+00                 0s

     297 PPushes remaining with PInf 0.0000000e+00                 0s
       0 PPushes remaining with PInf 0.0000000e+00                 0s

  Push phase complete: Pinf 0.0000000e+00, Dinf 2.5534022e-12      0s

Iteration    Objective       Primal Inf.    Dual Inf.      Time
     840    9.9125799e+01   0.000000e+00   0.000000e+00      0s

Solved in 840 iterations and 0.21 seconds (0.13 work units)
Optimal objective  9.912579945e+01
